c read Graph
c width = 25
c time = 29 ms
c width = 4
c time = 53 ms
c width = 4
c time = 4953 ms
s td 32 5 36
b 1 1 2 10
b 2 2 3 10 11
b 3 7 8 17 18
b 4 3 10 11 19
b 5 7 17 18 27
b 6 19 20 29 30
b 7 26 27 34 35
b 8 3 4 5 13
b 9 5 6 7 15
b 10 3 11 12 19 20
b 11 3 12 19 20 30
b 12 3 12 20 21 30
b 13 3 12 13 21 30
b 14 3 5 13 21 30
b 15 5 13 21 22 30
b 16 5 13 14 22 30
b 17 5 14 22 30 31
b 18 5 14 22 23 31
b 19 5 14 15 23 31
b 20 5 7 15 23 31
b 21 7 15 23 31 32
b 22 7 15 23 24 32
b 23 7 15 16 24 32
b 24 7 16 24 32 33
b 25 7 16 24 25 33
b 26 7 16 17 25 33
b 27 7 17 25 27 33
b 28 17 25 26 27 33
b 29 25 26 27 33 34
b 30 27 35 36
b 31 19 28 29
b 32 8 9 18
1 2
2 4
3 32
3 5
4 10
5 27
6 31
6 11
7 30
7 29
8 14
9 20
10 11
11 12
12 13
13 14
14 15
15 16
16 17
17 18
18 19
19 20
20 21
21 22
22 23
23 24
24 25
25 26
26 27
27 28
28 29
